33D32945 STP File, STP Format Version 1.0

SECTION Comments
Name "edge_n14_d2_s50"
Problem "Euclidean Steiner Tree Problem"
Remark "Generated with STPGenerator. 2 dimensions."
END

SECTION Graph
Nodes 14
END

SECTION Coordinates
DD 0 0.8943212232 0.8943212232
DD 1 0.6286429756 0.6286429756
DD 2 0.1040961771 0.1040961771
DD 3 0.9758517360 0.9758517360
DD 4 0.6714702508 0.6714702508
DD 5 0.5076044628 0.5076044628
DD 6 0.0156422849 0.0156422849
DD 7 0.2154678540 0.2154678540
DD 8 0.2348691641 0.2348691641
DD 9 0.1913313205 0.1913313205
DD 10 0.4307993098 0.4307993098
DD 11 0.5479775013 0.5479775013
DD 12 0.0151233026 0.0151233026
DD 13 0.0380932228 0.0380932228
END
